RT is False
Default write of storage_offers_DA.csv just to have a file (but constraint should be inactive)
Reading model...
...model read.
creating competitive generators file...
...competitive generators recorded.
Loading data...
.. day-ahead data with real-time VRE data read.
Compiling instance...
...instance created.
Creating Offer Mitigation (model will solve as dispatch if TRUE)...
NOTE: storage offers will not be mitigated
...storage offer mitigation file created
Converting model to MPEC...
...converted
NOTE: initial MIP solve with only storage competitive to get feasible solution
Solving...

Welcome to IBM(R) ILOG(R) CPLEX(R) Interactive Optimizer 12.9.0.0
  with Simplex, Mixed Integer & Barrier Optimizers
5725-A06 5725-A29 5724-Y48 5724-Y49 5724-Y54 5724-Y55 5655-Y21
Copyright IBM Corp. 1988, 2019.  All Rights Reserved.

Type 'help' for a list of available commands.
Type 'help' followed by a command name for more
information on commands.

CPLEX> Logfile 'cplex.log' closed.
Logfile 'C:\Users\llavin\Desktop\test826\logs\tmp4n8dgc0g.cplex.log' open.
CPLEX> New value for parallel optimization mode: -1
CPLEX> New value for emphasis for MIP optimization: 1
CPLEX> New value for mixed integer optimality gap tolerance: 0.01
CPLEX> New value for integrality tolerance: 1e-12
CPLEX> New value for deterministic time limit in ticks: 75000
CPLEX> Problem 'C:\Users\llavin\Desktop\test826\logs\tmp5697ow6f.pyomo.lp' read.
Read time = 0.22 sec. (13.92 ticks)
CPLEX> Problem name         : C:\Users\llavin\Desktop\test826\logs\tmp5697ow6f.pyomo.lp
Objective sense      : Maximize
Variables            :   53809  [Nneg: 1,  Box: 22004,  Free: 4464,
                                 Binary: 27340]
Objective nonzeros   :    9029
Linear constraints   :  123253  [Less: 41346,  Greater: 59096,  Equal: 22811]
  Nonzeros           :  293217
  RHS nonzeros       :   67491

Variables            : Min LB: -5000.000        Max UB: 1000000.       
Objective nonzeros   : Min   : 0.2250000        Max   : 2500.000       
Linear constraints   :
  Nonzeros           : Min   : 0.2250000        Max   : 1000000.       
  RHS nonzeros       : Min   : 0.2250000        Max   : 1000000.       
CPLEX> CPXPARAM_Parallel                                -1
CPXPARAM_Emphasis_MIP                            1
CPXPARAM_DetTimeLimit                            75000
CPXPARAM_MIP_Tolerances_MIPGap                   0.01
CPXPARAM_MIP_Tolerances_Integrality              9.9999999999999998e-13
Tried aggregator 4 times.
MIP Presolve eliminated 88690 rows and 18993 columns.
MIP Presolve added 3373 rows and 0 columns.
MIP Presolve modified 24865 coefficients.
Aggregator did 12987 substitutions.
Reduced MIP has 24949 rows, 21273 columns, and 71768 nonzeros.
Reduced MIP has 8411 binaries, 0 generals, 0 SOSs, and 0 indicators.
Presolve time = 0.33 sec. (192.43 ticks)
Probing fixed 389 vars, tightened 3883 bounds.
Probing time = 0.06 sec. (19.05 ticks)
Tried aggregator 2 times.
MIP Presolve eliminated 882 rows and 786 columns.
MIP Presolve modified 3039 coefficients.
Aggregator did 35 substitutions.
Reduced MIP has 24032 rows, 20452 columns, and 69098 nonzeros.
Reduced MIP has 8019 binaries, 0 generals, 0 SOSs, and 0 indicators.
Presolve time = 0.11 sec. (89.42 ticks)
Probing fixed 5 vars, tightened 233 bounds.
Probing time = 0.14 sec. (24.25 ticks)
Clique table members: 44961.
MIP emphasis: integer feasibility.
MIP search method: dynamic search.
Parallel mode: opportunistic, using up to 32 threads.
Root relaxation solution time = 0.42 sec. (610.11 ticks)

        Nodes                                         Cuts/
   Node  Left     Objective  IInf  Best Integer    Best Bound    ItCnt     Gap

      0     0     3150.9814   124                   3150.9814     5321         
      0     0     3150.9814     2                     Cuts: 3     5323         
*     0+    0                         2399.3487     3150.9814            31.33%
      0     0     3150.9814     3     2399.3487      Fract: 1     5325   31.33%
      0     0     3150.9814     4     2399.3487      Cuts: 11     5327   31.33%

Repeating presolve.
Tried aggregator 4 times.
MIP Presolve eliminated 8050 rows and 6099 columns.
MIP Presolve modified 23269 coefficients.
Aggregator did 148 substitutions.
Reduced MIP has 15834 rows, 14204 columns, and 47329 nonzeros.
Reduced MIP has 5398 binaries, 0 generals, 0 SOSs, and 0 indicators.
Presolve time = 0.20 sec. (130.24 ticks)
Probing fixed 670 vars, tightened 18767 bounds.
Probing time = 0.20 sec. (102.81 ticks)
Cover probing fixed 29 vars, tightened 1153 bounds.
Tried aggregator 2 times.
MIP Presolve eliminated 5170 rows and 4826 columns.
MIP Presolve modified 4378 coefficients.
Aggregator did 31 substitutions.
Reduced MIP has 10633 rows, 9347 columns, and 33434 nonzeros.
Reduced MIP has 3522 binaries, 0 generals, 0 SOSs, and 0 indicators.
Presolve time = 0.03 sec. (26.38 ticks)
Probing fixed 75 vars, tightened 4325 bounds.
Probing time = 0.06 sec. (25.26 ticks)
Cover probing fixed 5 vars, tightened 176 bounds.
Tried aggregator 2 times.
MIP Presolve eliminated 261 rows and 202 columns.
MIP Presolve modified 2908 coefficients.
Aggregator did 3 substitutions.
Reduced MIP has 10369 rows, 9142 columns, and 32758 nonzeros.
Reduced MIP has 3432 binaries, 0 generals, 0 SOSs, and 0 indicators.
Presolve time = 0.02 sec. (18.93 ticks)
Probing fixed 6 vars, tightened 2815 bounds.
Probing time = 0.06 sec. (16.09 ticks)
Cover probing fixed 6 vars, tightened 177 bounds.
Tried aggregator 1 time.
MIP Presolve eliminated 41 rows and 35 columns.
MIP Presolve modified 2637 coefficients.
Reduced MIP has 10328 rows, 9107 columns, and 32646 nonzeros.
Reduced MIP has 3418 binaries, 0 generals, 0 SOSs, and 0 indicators.
Presolve time = 0.05 sec. (24.67 ticks)
Represolve time = 0.81 sec. (387.93 ticks)
Probing fixed 4 vars, tightened 2588 bounds.
Probing time = 0.05 sec. (12.65 ticks)
Cover probing fixed 1 vars, tightened 182 bounds.
Clique table members: 4873.
MIP emphasis: integer feasibility.
MIP search method: dynamic search.
Parallel mode: opportunistic, using up to 32 threads.
Root relaxation solution time = 0.16 sec. (200.98 ticks)

        Nodes                                         Cuts/
   Node  Left     Objective  IInf  Best Integer    Best Bound    ItCnt     Gap

*     0+    0                         2399.3487     3150.9814            31.33%
      0     0     3150.9814    69     2399.3487     3150.9814     7914   31.33%
      0     0     3150.5230     4     2399.3487      Cuts: 18     7926   31.31%
*     0+    0                         3147.5714     3150.5230             0.09%

Clique cuts applied:  2
Implied bound cuts applied:  1
Flow cuts applied:  1
Mixed integer rounding cuts applied:  5
Lift and project cuts applied:  1
Gomory fractional cuts applied:  5

Root node processing (before b&c):
  Real time             =    4.59 sec. (2976.00 ticks)
Parallel b&c, 32 threads:
  Real time             =    0.00 sec. (0.00 ticks)
  Sync time (average)   =    0.00 sec.
  Wait time (average)   =    0.00 sec.
                          ------------
Total (root+branch&cut) =    4.59 sec. (2976.00 ticks)

Solution pool: 2 solutions saved.

MIP - Integer optimal, tolerance (0.01/1e-06):  Objective =  3.1475714012e+03
Current MIP best bound =  3.1505229749e+03 (gap = 2.95157, 0.09%)
Solution time =    4.61 sec.  Iterations = 7926  Nodes = 0 (1)
Deterministic time = 2976.15 ticks  (645.73 ticks/sec)

CPLEX> Incumbent solution written to file 'C:\Users\llavin\Desktop\test826\logs\tmpbnf7trg4.cplex.sol'.
CPLEX> NOTE: no warmstart specified for MIP iteration, default behavior is true
NOTE: resolving with all competitive generators using storage-only solution to warmstart
Solving...

Welcome to IBM(R) ILOG(R) CPLEX(R) Interactive Optimizer 12.9.0.0
  with Simplex, Mixed Integer & Barrier Optimizers
5725-A06 5725-A29 5724-Y48 5724-Y49 5724-Y54 5724-Y55 5655-Y21
Copyright IBM Corp. 1988, 2019.  All Rights Reserved.

Type 'help' for a list of available commands.
Type 'help' followed by a command name for more
information on commands.

CPLEX> Logfile 'cplex.log' closed.
Logfile 'C:\Users\llavin\Desktop\test826\logs\tmp96bzor2l.cplex.log' open.
CPLEX> New value for parallel optimization mode: -1
CPLEX> New value for emphasis for MIP optimization: 1
CPLEX> New value for mixed integer optimality gap tolerance: 0.01
CPLEX> New value for integrality tolerance: 1e-12
CPLEX> New value for deterministic time limit in ticks: 75000
CPLEX> Problem 'C:\Users\llavin\Desktop\test826\logs\tmp68j9mgt3.pyomo.lp' read.
Read time = 0.23 sec. (13.94 ticks)
CPLEX> MIP start file 'C:\Users\llavin\Desktop\test826\logs\tmpt9_lo9ag.cplex.mst' read.
CPLEX> Problem name         : C:\Users\llavin\Desktop\test826\logs\tmp68j9mgt3.pyomo.lp
Objective sense      : Maximize
Variables            :   54529  [Nneg: 1,  Box: 22724,  Free: 4464,
                                 Binary: 27340]
Objective nonzeros   :    9725
Linear constraints   :  123253  [Less: 41346,  Greater: 59096,  Equal: 22811]
  Nonzeros           :  293217
  RHS nonzeros       :   67491

Variables            : Min LB: -5000.000        Max UB: 1000000.       
Objective nonzeros   : Min   : 0.2250000        Max   : 2500.000       
Linear constraints   :
  Nonzeros           : Min   : 0.2250000        Max   : 1000000.       
  RHS nonzeros       : Min   : 0.2250000        Max   : 1000000.       
CPLEX> CPXPARAM_Parallel                                -1
CPXPARAM_Emphasis_MIP                            1
CPXPARAM_DetTimeLimit                            75000
CPXPARAM_MIP_Tolerances_MIPGap                   0.01
CPXPARAM_MIP_Tolerances_Integrality              9.9999999999999998e-13
Warning:  No solution found from 1 MIP starts.
Retaining values of one MIP start for possible repair.
Tried aggregator 4 times.
MIP Presolve eliminated 88690 rows and 19713 columns.
MIP Presolve added 3373 rows and 0 columns.
MIP Presolve modified 24865 coefficients.
Aggregator did 12987 substitutions.
Reduced MIP has 24949 rows, 21273 columns, and 71768 nonzeros.
Reduced MIP has 8411 binaries, 0 generals, 0 SOSs, and 0 indicators.
Presolve time = 0.31 sec. (192.84 ticks)
Probing fixed 389 vars, tightened 3883 bounds.
Probing time = 0.06 sec. (19.05 ticks)
Tried aggregator 2 times.
MIP Presolve eliminated 882 rows and 786 columns.
MIP Presolve modified 3039 coefficients.
Aggregator did 35 substitutions.
Reduced MIP has 24032 rows, 20452 columns, and 69098 nonzeros.
Reduced MIP has 8019 binaries, 0 generals, 0 SOSs, and 0 indicators.
Presolve time = 0.11 sec. (89.43 ticks)
Probing fixed 5 vars, tightened 233 bounds.
Probing time = 0.14 sec. (24.25 ticks)
Clique table members: 44961.
MIP emphasis: integer feasibility.
MIP search method: dynamic search.
Parallel mode: opportunistic, using up to 32 threads.
Root relaxation solution time = 0.50 sec. (696.07 ticks)

        Nodes                                         Cuts/
   Node  Left     Objective  IInf  Best Integer    Best Bound    ItCnt     Gap

      0     0   125538.4700   335                 125538.4700     6200         
      0     0   121734.6550   321                   Cuts: 333     6448         
      0     0   120958.8013   258                   Cuts: 140     6548         
      0     0   120738.8858   240                    Cuts: 50     6597         
Repair heuristic found nothing.
      0    20   110593.2202   219                    Cuts: 17     6962         
Elapsed time = 4.44 sec. (1989.88 ticks, tree = 0.02 MB, solutions = 0)
    615   119   112726.2975   189                 119589.0797     8169         
   1084   822   112147.0668   194                 119589.0797    17503         
   1569  1155   112025.9719   176                 119589.0797    21314         
   2068  1744    68837.1815   140                 119589.0797    41824         
   2616  1812    53705.9214   171                 119589.0797    43086         
   3157  2382     3651.5523    67                 119589.0797    57522         
   3773  2710    infeasible                       119589.0797    61550         
   4384  3207    53782.8097   123                 119589.0797    74775         
   4993  3790    43244.2881    76                 119589.0797    87207         
   7161  5524    43182.5705   105                 119575.2348   120120         
Elapsed time = 21.31 sec. (5093.52 ticks, tree = 40.34 MB, solutions = 0)
   9345  6977    47806.1198   124                 119575.2348   150431         
  11612  8535    67563.5138   148                 119575.2348   188982         
  14027 10553    59114.3128   131                 119575.2348   232201         
  16151 12359    66729.8402   171                 119575.2348   278285         
  18215 13665    25441.6194   164                 119575.2348   317171         
  20144 15199    30109.0735    76                 119575.2348   371069         
  22179 17484 -1140506.2774   263                 119575.2348   439152         
  24183 17921    39550.7805    82                 119575.2348   456217         
  26246 18706    81247.4801   190                 119575.2348   478955         
  28317 21077    63046.1374   157                 119575.2348   541897         
Elapsed time = 78.77 sec. (14632.58 ticks, tree = 605.47 MB, solutions = 0)
  30288 21529    56118.0977   120                 119575.2348   558776         
  32310 26040    74783.7726   123                 119575.2348   699482         
  34497 24497    68609.6892   150                 119575.2348   656580         
  36474 25258    65154.5065   166                 119575.2348   677349         
  38747 30329    79027.6636   166                 119575.2348   839577         
  40990 28766    70015.7524   157                 119575.2348   785705         
  43153 29536    66325.9705   134                 119575.2348   813293         
  45209 31403    75902.2475   138                 119373.5294   872529         
  47125 32923    76139.1761   178                 119373.5294   923039         
  49120 38551  -567502.3787   151                 119109.0705  1113280         
Elapsed time = 164.47 sec. (24173.56 ticks, tree = 767.22 MB, solutions = 0)
  51179 35799    67841.2663   162                 118489.7389  1019048         
  53221 38234    72093.0932   180                 118489.7389  1104501         
  55280 38050     8621.8635   181                 118489.7389  1094277         
  57358 43026    38741.1853   162                 117677.1344  1277399         
  59517 42874    68475.7179   186                 117675.1350  1270839         
  61628 49130    67827.7046   173                 117675.1350  1487061         
  63880 44499  -142473.3263   135                 117675.1350  1327326         
  66089 49867    66670.4890   155                 117664.2423  1517251         
  68242 47317    25659.6515   173                 116489.2789  1426124         
  70383 50790    61263.9680   124                 116489.2789  1550188         
Elapsed time = 251.81 sec. (33715.30 ticks, tree = 868.09 MB, solutions = 0)
  72445 51227  -510557.5184   175                 116489.2789  1564022         
  74509 53787    74424.3615   125                 116489.2789  1655334         
  76473 57825    59058.4493   157                 116489.2789  1791422         
  78492 56173    57032.5195   119                 116489.2789  1734212         
  80497 55139    78306.7771   195                 116489.2789  1704347         
  82567 58675    75943.0017   164                 116489.2789  1826420         
  84648 60034    64478.4893   128                 116489.2789  1869967         
  86657 61687    72119.5371   106                 116489.2789  1922111         
  88894 60072    infeasible                       116489.2789  1870426         
  91181 61073    47343.1080    92                 116489.2789  1901837         
Elapsed time = 375.92 sec. (43256.15 ticks, tree = 949.98 MB, solutions = 0)
  93529 64798    77493.5941   178                 116489.2789  2027015         
  95826 66300    70785.8852   126                 116489.2789  2072130         
  98044 68832  -120395.3038    74                 116489.2789  2148923         
 100428 67986    38148.5844   115                 116489.2789  2125257         
 102695 71319    72924.1417   157                 116489.2789  2215388         
 104769 69114    68270.3091   134                 116489.2789  2158794         
*105790 71360      integral     0    35305.7834   116489.2789  2217317  229.94%
 107813 69219    71681.0006   112    35305.7834   116489.2789  2160903  229.94%
 109391 71739    72185.2991   141    35305.7834   116489.2789  2229071  229.94%
 110713 74603    54423.7449   111    35305.7834   116489.2789  2307080  229.94%
Elapsed time = 437.19 sec. (52353.04 ticks, tree = 1058.54 MB, solutions = 1)
 111873 75208    62450.0664   110    35305.7834   116489.2789  2329612  229.94%
 112814 77550    -9604.4233    43    35305.7834   116489.2789  2376388  229.94%
 113224 48832    56642.1811   126    35305.7834   116489.2789  2386504  229.94%
 113408 77561    60103.4374   145    35305.7834   116489.2789  2378249  229.94%
 113446 56922        cutoff          35305.7834    84291.8389  2724848  138.75%
 115540  1062    50460.1185    48    35305.7834    74240.9031  2741978  110.28%
 118875  2391    35449.3685    29    35305.7834    74240.9031  2764280  110.28%
 122394  5164        cutoff          35305.7834    74230.7657  2805519  110.25%
 125706  6889    56241.6071    68    35305.7834    74230.7657  2839108  110.25%
 129091  9715    53891.9557    76    35305.7834    74230.7657  2907014  110.25%
Elapsed time = 473.17 sec. (63691.97 ticks, tree = 72.93 MB, solutions = 1)
 131689 10139    45919.6353    58    35305.7834    74230.7657  2920606  110.25%
 132113 11847    55863.0495    69    35305.7834    74230.7657  2978206  110.25%
 133915 11928    48010.4438    50    35305.7834    74230.7657  2980856  110.25%
 137047 12363    45856.7371    75    35305.7834    74230.7657  3004313  110.25%
 140461 14085    49788.7774    83    35305.7834    74230.7657  3067863  110.25%
 143989 15486    43670.4147    73    35305.7834    74230.7657  3106564  110.25%
 147335 16315    44225.1378    62    35305.7834    74230.7657  3131979  110.25%
 150622 17957    42365.9186   102    35305.7834    74230.7657  3194528  110.25%
 154063 18151        cutoff          35305.7834    74230.7657  3199598  110.25%
 157364 20315        cutoff          35305.7834    74230.7657  3263341  110.25%
Elapsed time = 517.92 sec. (73231.16 ticks, tree = 156.90 MB, solutions = 1)
 159798 20399        cutoff          35305.7834    74230.7657  3265296  110.25%

GUB cover cuts applied:  1
Cover cuts applied:  52
Implied bound cuts applied:  9
Flow cuts applied:  280
Mixed integer rounding cuts applied:  44
Gomory fractional cuts applied:  30

Root node processing (before b&c):
  Real time             =    2.70 sec. (1942.99 ticks)
Parallel b&c, 32 threads:
  Real time             =  517.30 sec. (73075.35 ticks)
  Sync time (average)   =    2.15 sec.
  Wait time (average)   =    0.25 sec.
                          ------------
Total (root+branch&cut) =  520.00 sec. (75018.34 ticks)

Solution pool: 1 solution saved.

MIP - Deterministic time limit exceeded, integer feasible:  Objective =  3.5305783435e+04
Current MIP best bound =  7.4230765742e+04 (gap = 38925, 110.25%)
Solution time =  520.03 sec.  Iterations = 3356484  Nodes = 160782 (23442)
Deterministic time = 75018.49 ticks  (144.26 ticks/sec)

CPLEX> Incumbent solution written to file 'C:\Users\llavin\Desktop\test826\logs\tmpyekfbfdq.cplex.sol'.
CPLEX> Exporting results... 
